[2026-03-24T00:33:54.227Z] Pipeline "set_set_set_s006_g009" → 2026_03_24_00_33_54_set_set_set_s006_g009_max.sol
Set parameter WLSAccessID
Set parameter WLSSecret
Set parameter LicenseID to value 2792458
Set parameter LogFile to value "gurobi.log"
Using license file /root/gurobi.lic
Academic license 2792458 - for non-commercial use only - registered to an___@studenti.unipg.it

Gurobi Optimizer version 13.0.1 build v13.0.1rc0 (linux64 - "Ubuntu 24.04.4 LTS")
Copyright (c) 2026, Gurobi Optimization, LLC

Warning: Duplicate section found (read 'binary') - Is a variable name equal to an LP file format keyword?
Warning: Duplicate section found (read 'binary') - Is a variable name equal to an LP file format keyword?
Warning: Duplicate section found (read 'binary') - Is a variable name equal to an LP file format keyword?
Warning: Duplicate section found (read 'binary') - Is a variable name equal to an LP file format keyword?
Warning: Duplicate section found (read 'binary') - Is a variable name equal to an LP file format keyword?
Warning: Duplicate section found (read 'binary') - Is a variable name equal to an LP file format keyword?
Warning: Duplicate section found (read 'binary') - Is a variable name equal to an LP file format keyword?
Warning: Duplicate section found (read 'binary') - Is a variable name equal to an LP file format keyword?
Warning: Duplicate section found (read 'binary') - Is a variable name equal to an LP file format keyword?
Warning: Duplicate section found (read 'binary') - Is a variable name equal to an LP file format keyword?
Warning: Further warnings of this type will be omitted.
Read LP format model from file /root/bgw/data/uploads/2026_03_24_00_33_54_set_set_set_s006_g009_max.lp
Reading time = 0.00 seconds
: 675 rows, 126 columns, 1827 nonzeros

Using Gurobi shared library /opt/gurobi1301/linux64/lib/libgurobi.so.13.0.1

CPU model: AMD EPYC-Genoa Processor, instruction set [SSE2|AVX|AVX2|AVX512]
Thread count: 16 physical cores, 16 logical processors, using up to 16 threads

Academic license 2792458 - for non-commercial use only - registered to an___@studenti.unipg.it
Optimize a model with 675 rows, 126 columns and 1827 nonzeros (Max)
Model fingerprint: 0x612140bb
Model has 18 linear objective coefficients
Variable types: 29 continuous, 97 integer (97 binary)
Coefficient statistics:
  Matrix range     [1e+00, 1e+01]
  Objective range  [1e+00, 1e+00]
  Bounds range     [1e+00, 1e+00]
  RHS range        [1e+00, 1e+01]

Found heuristic solution: objective 18.0000000
Presolve removed 303 rows and 46 columns
Presolve time: 0.00s
Presolved: 372 rows, 80 columns, 1180 nonzeros
Variable types: 0 continuous, 80 integer (72 binary)
Found heuristic solution: objective 35.0000000

Root relaxation: objective 8.400000e+01, 104 iterations, 0.00 seconds (0.00 work units)

    Nodes    |    Current Node    |     Objective Bounds      |     Work
 Expl Unexpl |  Obj  Depth IntInf | Incumbent    BestBd   Gap | It/Node Time

     0     0   84.00000    0   27   35.00000   84.00000   140%     -    0s
H    0     0                      36.0000000   84.00000   133%     -    0s
H    0     0                      38.0000000   84.00000   121%     -    0s
     0     0   84.00000    0   32   38.00000   84.00000   121%     -    0s
H    0     0                      40.0000000   84.00000   110%     -    0s
H    0     0                      41.0000000   84.00000   105%     -    0s
     0     0   84.00000    0   31   41.00000   84.00000   105%     -    0s
     0     0   84.00000    0   31   41.00000   84.00000   105%     -    0s
H    0     0                      42.0000000   84.00000   100%     -    0s
H    0     0                      45.0000000   84.00000  86.7%     -    0s
     0     0   84.00000    0   33   45.00000   84.00000  86.7%     -    0s
     0     0   84.00000    0   27   45.00000   84.00000  86.7%     -    0s
     0     0   84.00000    0   35   45.00000   84.00000  86.7%     -    0s
     0     0   84.00000    0   33   45.00000   84.00000  86.7%     -    0s
H    0     0                      46.0000000   84.00000  82.6%     -    0s
     0     0   84.00000    0   36   46.00000   84.00000  82.6%     -    0s
     0     0   84.00000    0   32   46.00000   84.00000  82.6%     -    0s
H    0     0                      47.0000000   83.00000  76.6%     -    0s
     0     0   83.00000    0   31   47.00000   83.00000  76.6%     -    0s
     0     0   83.00000    0   31   47.00000   83.00000  76.6%     -    0s
     0     0   83.00000    0   31   47.00000   83.00000  76.6%     -    0s
     0     0   83.00000    0   31   47.00000   83.00000  76.6%     -    0s
H    0     0                      49.0000000   83.00000  69.4%     -    0s
     0     2   83.00000    0   31   49.00000   83.00000  69.4%     -    0s

Cutting planes:
  Gomory: 3
  Cover: 89
  MIR: 1
  Inf proof: 98
  Zero half: 5

Explored 14336 nodes (268642 simplex iterations) in 0.78 seconds (0.88 work units)
Thread count was 16 (of 16 available processors)

Solution count 10: 49 47 46 ... 35

Optimal solution found (tolerance 1.00e-04)
Best objective 4.900000000000e+01, best bound 4.900000000000e+01, gap 0.0000%

Wrote result file '/root/bgw/data/results/2026_03_24_00_33_54_set_set_set_s006_g009_max.sol'

